language Essence 1.3

letting class be function(1 --> 1, 2 --> 1, 3 --> 1, 4 --> 1, 5 --> 1, 6 --> 1, 7 --> 1, 8 --> 1, 9 --> 1)
letting deck_length be 17
letting deck_width be 23
letting length be function(1 --> 12, 2 --> 6, 3 --> 1, 4 --> 8, 5 --> 9, 6 --> 12, 7 --> 13, 8 --> 2, 9 --> 7)
letting n_classes be 1
letting n_containers be 9
letting separation be function()
letting width be function(1 --> 20, 2 --> 1, 3 --> 1, 4 --> 1, 5 --> 5, 6 --> 2, 7 --> 3, 8 --> 6, 9 --> 1)
